3072594
62,187,103,45,104,192,55,215,107,87,168,220,111,118,43,67,108,184,94,81,78,133,155,112,102,162,229,210,185,31,64,15,206,173,39,156,115,126,131,120,70,193,65,157,147,8,139,230,58,137,89,101,33,21,30,172,14,72,125,44,158,148,218,9,16,32,207,160,145,135,140,149,121,128,41,219,24,99,141,61,97,13,165,25,29,52,180,190,106,222,82,164,48,114,2,57,143,93,73,188,119,71,191,225,123,51,59,38,161,226,74,163,63,49,194,209,201,217,6,113,80,47,211,105,100,53,18,56,54,175,92,216,202,66,213,75,28,153,4,129,98,197,221,130,40,154,91,134,127,199,22,138,179,96,196,3,34,36,178,159,136,212,5,152,200,23,95,176,181,174,167,122,177,17,88,142,170,109,228,186,90,171,150,12,146,224,144,182,60,69,42,110,166,35,205,37,20,183,124,132,116,198,19,46,227,77,204,223,169,68,203,76,151,27,208,195,10,117,189,1,50,7,83,11,214,79,85,86,84,26